Code 2334
Dimension, Median
   128       16     
 Facility, Client, Transportation Cost
     1        1           1
     1        2           2
     1        3           0
     1        5           4
     1        9           1
     1       17           4
     1       33           2
     1       65           3
     2        1           0
     2        2           3
     2        4           3
     2        6           0
     2       10           0
     2       18           0
     2       34           3
     2       66           4
     3        1           2
     3        3           0
     3        4           0
     3        7           3
     3       11           4
     3       19           1
     3       35           0
     3       67           0
     4        2           3
     4        3           4
     4        4           2
     4        8           4
     4       12           0
     4       20           2
     4       36           3
     4       68           3
     5        1           3
     5        5           2
     5        6           2
     5        7           1
     5       13           4
     5       21           1
     5       37           3
     5       69           4
     6        2           0
     6        5           0
     6        6           3
     6        8           2
     6       14           1
     6       22           0
     6       38           2
     6       70           3
     7        3           2
     7        5           3
     7        7           3
     7        8           4
     7       15           0
     7       23           3
     7       39           0
     7       71           4
     8        4           4
     8        6           3
     8        7           0
     8        8           0
     8       16           4
     8       24           1
     8       40           0
     8       72           1
     9        1           3
     9        9           3
     9       10           4
     9       11           4
     9       13           2
     9       25           1
     9       41           2
     9       73           0
    10        2           2
    10        9           2
    10       10           4
    10       12           3
    10       14           4
    10       26           0
    10       42           0
    10       74           2
    11        3           1
    11        9           0
    11       11           4
    11       12           3
    11       15           1
    11       27           0
    11       43           4
    11       75           1
    12        4           2
    12       10           2
    12       11           2
    12       12           2
    12       16           2
    12       28           4
    12       44           4
    12       76           1
    13        5           1
    13        9           0
    13       13           2
    13       14           4
    13       15           2
    13       29           3
    13       45           4
    13       77           4
    14        6           0
    14       10           3
    14       13           0
    14       14           3
    14       16           3
    14       30           3
    14       46           3
    14       78           1
    15        7           2
    15       11           4
    15       13           0
    15       15           4
    15       16           0
    15       31           2
    15       47           0
    15       79           2
    16        8           4
    16       12           1
    16       14           0
    16       15           4
    16       16           2
    16       32           0
    16       48           3
    16       80           3
    17        1           1
    17       17           4
    17       18           1
    17       19           3
    17       21           3
    17       25           0
    17       49           4
    17       81           4
    18        2           0
    18       17           1
    18       18           2
    18       20           4
    18       22           4
    18       26           4
    18       50           4
    18       82           1
    19        3           2
    19       17           3
    19       19           1
    19       20           2
    19       23           4
    19       27           4
    19       51           2
    19       83           3
    20        4           1
    20       18           4
    20       19           2
    20       20           3
    20       24           1
    20       28           4
    20       52           3
    20       84           1
    21        5           3
    21       17           3
    21       21           1
    21       22           0
    21       23           1
    21       29           1
    21       53           2
    21       85           0
    22        6           0
    22       18           0
    22       21           2
    22       22           2
    22       24           2
    22       30           3
    22       54           0
    22       86           2
    23        7           2
    23       19           4
    23       21           1
    23       23           3
    23       24           3
    23       31           0
    23       55           2
    23       87           3
    24        8           4
    24       20           4
    24       22           4
    24       23           0
    24       24           0
    24       32           0
    24       56           0
    24       88           4
    25        9           1
    25       17           4
    25       25           2
    25       26           1
    25       27           1
    25       29           0
    25       57           3
    25       89           2
    26       10           2
    26       18           0
    26       25           0
    26       26           0
    26       28           0
    26       30           4
    26       58           2
    26       90           4
    27       11           0
    27       19           0
    27       25           3
    27       27           3
    27       28           1
    27       31           1
    27       59           2
    27       91           4
    28       12           3
    28       20           3
    28       26           4
    28       27           1
    28       28           1
    28       32           3
    28       60           2
    28       92           0
    29       13           4
    29       21           0
    29       25           4
    29       29           3
    29       30           0
    29       31           1
    29       61           4
    29       93           2
    30       14           2
    30       22           2
    30       26           0
    30       29           2
    30       30           4
    30       32           3
    30       62           2
    30       94           1
    31       15           0
    31       23           2
    31       27           0
    31       29           4
    31       31           1
    31       32           2
    31       63           0
    31       95           3
    32       16           4
    32       24           1
    32       28           1
    32       30           0
    32       31           2
    32       32           2
    32       64           3
    32       96           1
    33        1           0
    33       33           3
    33       34           3
    33       35           4
    33       37           1
    33       41           2
    33       49           1
    33       97           4
    34        2           1
    34       33           3
    34       34           0
    34       36           3
    34       38           1
    34       42           3
    34       50           0
    34       98           1
    35        3           0
    35       33           4
    35       35           4
    35       36           0
    35       39           3
    35       43           3
    35       51           2
    35       99           3
    36        4           1
    36       34           0
    36       35           3
    36       36           3
    36       40           0
    36       44           4
    36       52           1
    36      100           0
    37        5           3
    37       33           4
    37       37           2
    37       38           2
    37       39           3
    37       45           3
    37       53           4
    37      101           2
    38        6           2
    38       34           2
    38       37           4
    38       38           1
    38       40           4
    38       46           1
    38       54           2
    38      102           3
    39        7           4
    39       35           4
    39       37           1
    39       39           2
    39       40           2
    39       47           4
    39       55           4
    39      103           0
    40        8           4
    40       36           4
    40       38           1
    40       39           1
    40       40           3
    40       48           1
    40       56           0
    40      104           4
    41        9           1
    41       33           1
    41       41           3
    41       42           0
    41       43           0
    41       45           1
    41       57           3
    41      105           4
    42       10           4
    42       34           1
    42       41           2
    42       42           3
    42       44           1
    42       46           0
    42       58           2
    42      106           4
    43       11           0
    43       35           3
    43       41           4
    43       43           3
    43       44           1
    43       47           0
    43       59           2
    43      107           4
    44       12           3
    44       36           4
    44       42           1
    44       43           3
    44       44           0
    44       48           1
    44       60           1
    44      108           2
    45       13           2
    45       37           4
    45       41           4
    45       45           3
    45       46           4
    45       47           4
    45       61           3
    45      109           4
    46       14           3
    46       38           4
    46       42           1
    46       45           4
    46       46           1
    46       48           2
    46       62           4
    46      110           2
    47       15           0
    47       39           0
    47       43           0
    47       45           4
    47       47           2
    47       48           3
    47       63           1
    47      111           2
    48       16           3
    48       40           4
    48       44           0
    48       46           0
    48       47           1
    48       48           2
    48       64           2
    48      112           1
    49       17           4
    49       33           0
    49       49           1
    49       50           2
    49       51           1
    49       53           1
    49       57           4
    49      113           3
    50       18           0
    50       34           0
    50       49           1
    50       50           2
    50       52           1
    50       54           1
    50       58           4
    50      114           1
    51       19           3
    51       35           1
    51       49           4
    51       51           3
    51       52           3
    51       55           2
    51       59           0
    51      115           2
    52       20           1
    52       36           0
    52       50           4
    52       51           2
    52       52           3
    52       56           1
    52       60           0
    52      116           0
    53       21           4
    53       37           2
    53       49           1
    53       53           2
    53       54           0
    53       55           2
    53       61           2
    53      117           0
    54       22           0
    54       38           3
    54       50           1
    54       53           0
    54       54           2
    54       56           2
    54       62           3
    54      118           4
    55       23           0
    55       39           3
    55       51           2
    55       53           0
    55       55           4
    55       56           2
    55       63           0
    55      119           3
    56       24           3
    56       40           3
    56       52           2
    56       54           2
    56       55           2
    56       56           1
    56       64           0
    56      120           4
    57       25           3
    57       41           3
    57       49           0
    57       57           0
    57       58           0
    57       59           1
    57       61           2
    57      121           0
    58       26           4
    58       42           0
    58       50           4
    58       57           1
    58       58           1
    58       60           0
    58       62           0
    58      122           1
    59       27           4
    59       43           2
    59       51           3
    59       57           4
    59       59           2
    59       60           1
    59       63           3
    59      123           1
    60       28           1
    60       44           4
    60       52           0
    60       58           1
    60       59           2
    60       60           0
    60       64           4
    60      124           2
    61       29           1
    61       45           1
    61       53           4
    61       57           4
    61       61           1
    61       62           2
    61       63           3
    61      125           0
    62       30           0
    62       46           1
    62       54           2
    62       58           4
    62       61           3
    62       62           2
    62       64           3
    62      126           0
    63       31           1
    63       47           4
    63       55           3
    63       59           1
    63       61           2
    63       63           3
    63       64           4
    63      127           1
    64       32           4
    64       48           2
    64       56           0
    64       60           4
    64       62           2
    64       63           0
    64       64           1
    64      128           1
    65        1           2
    65       65           0
    65       66           0
    65       67           1
    65       69           3
    65       73           0
    65       81           4
    65       97           3
    66        2           3
    66       65           0
    66       66           3
    66       68           4
    66       70           2
    66       74           3
    66       82           3
    66       98           3
    67        3           3
    67       65           4
    67       67           3
    67       68           0
    67       71           4
    67       75           4
    67       83           4
    67       99           3
    68        4           1
    68       66           3
    68       67           4
    68       68           4
    68       72           2
    68       76           0
    68       84           1
    68      100           0
    69        5           4
    69       65           1
    69       69           1
    69       70           0
    69       71           3
    69       77           4
    69       85           0
    69      101           1
    70        6           3
    70       66           0
    70       69           3
    70       70           1
    70       72           4
    70       78           2
    70       86           3
    70      102           1
    71        7           3
    71       67           2
    71       69           1
    71       71           4
    71       72           4
    71       79           0
    71       87           3
    71      103           2
    72        8           3
    72       68           0
    72       70           0
    72       71           0
    72       72           4
    72       80           4
    72       88           0
    72      104           0
    73        9           3
    73       65           1
    73       73           2
    73       74           1
    73       75           1
    73       77           0
    73       89           2
    73      105           2
    74       10           3
    74       66           0
    74       73           0
    74       74           2
    74       76           0
    74       78           1
    74       90           4
    74      106           4
    75       11           4
    75       67           4
    75       73           4
    75       75           0
    75       76           4
    75       79           2
    75       91           0
    75      107           1
    76       12           0
    76       68           3
    76       74           3
    76       75           4
    76       76           4
    76       80           3
    76       92           1
    76      108           4
    77       13           0
    77       69           4
    77       73           3
    77       77           4
    77       78           4
    77       79           1
    77       93           4
    77      109           0
    78       14           3
    78       70           4
    78       74           3
    78       77           4
    78       78           0
    78       80           1
    78       94           1
    78      110           3
    79       15           0
    79       71           3
    79       75           2
    79       77           2
    79       79           4
    79       80           1
    79       95           0
    79      111           4
    80       16           2
    80       72           0
    80       76           2
    80       78           0
    80       79           1
    80       80           2
    80       96           1
    80      112           1
    81       17           0
    81       65           3
    81       81           3
    81       82           0
    81       83           3
    81       85           4
    81       89           3
    81      113           3
    82       18           1
    82       66           3
    82       81           2
    82       82           3
    82       84           4
    82       86           2
    82       90           0
    82      114           2
    83       19           0
    83       67           4
    83       81           4
    83       83           1
    83       84           1
    83       87           4
    83       91           2
    83      115           3
    84       20           3
    84       68           0
    84       82           2
    84       83           1
    84       84           4
    84       88           2
    84       92           4
    84      116           4
    85       21           1
    85       69           2
    85       81           2
    85       85           0
    85       86           0
    85       87           2
    85       93           0
    85      117           4
    86       22           0
    86       70           0
    86       82           4
    86       85           4
    86       86           1
    86       88           0
    86       94           1
    86      118           0
    87       23           0
    87       71           2
    87       83           2
    87       85           0
    87       87           3
    87       88           1
    87       95           2
    87      119           2
    88       24           0
    88       72           4
    88       84           1
    88       86           0
    88       87           4
    88       88           0
    88       96           0
    88      120           0
    89       25           0
    89       73           1
    89       81           1
    89       89           3
    89       90           0
    89       91           1
    89       93           3
    89      121           3
    90       26           4
    90       74           2
    90       82           4
    90       89           1
    90       90           3
    90       92           1
    90       94           3
    90      122           0
    91       27           0
    91       75           3
    91       83           4
    91       89           2
    91       91           3
    91       92           3
    91       95           0
    91      123           2
    92       28           3
    92       76           4
    92       84           0
    92       90           4
    92       91           2
    92       92           1
    92       96           2
    92      124           1
    93       29           0
    93       77           4
    93       85           2
    93       89           0
    93       93           3
    93       94           4
    93       95           2
    93      125           0
    94       30           0
    94       78           1
    94       86           3
    94       90           3
    94       93           0
    94       94           2
    94       96           0
    94      126           2
    95       31           0
    95       79           1
    95       87           1
    95       91           4
    95       93           2
    95       95           2
    95       96           4
    95      127           3
    96       32           1
    96       80           3
    96       88           3
    96       92           2
    96       94           0
    96       95           1
    96       96           4
    96      128           0
    97       33           4
    97       65           2
    97       97           2
    97       98           0
    97       99           2
    97      101           0
    97      105           2
    97      113           3
    98       34           1
    98       66           2
    98       97           2
    98       98           1
    98      100           3
    98      102           2
    98      106           1
    98      114           0
    99       35           0
    99       67           1
    99       97           4
    99       99           1
    99      100           1
    99      103           0
    99      107           3
    99      115           2
   100       36           3
   100       68           4
   100       98           3
   100       99           3
   100      100           2
   100      104           1
   100      108           4
   100      116           0
   101       37           2
   101       69           1
   101       97           0
   101      101           3
   101      102           2
   101      103           0
   101      109           3
   101      117           4
   102       38           4
   102       70           3
   102       98           3
   102      101           0
   102      102           1
   102      104           3
   102      110           4
   102      118           4
   103       39           4
   103       71           2
   103       99           2
   103      101           1
   103      103           1
   103      104           2
   103      111           0
   103      119           3
   104       40           1
   104       72           0
   104      100           1
   104      102           4
   104      103           2
   104      104           3
   104      112           4
   104      120           4
   105       41           4
   105       73           3
   105       97           0
   105      105           0
   105      106           1
   105      107           3
   105      109           1
   105      121           1
   106       42           2
   106       74           3
   106       98           0
   106      105           4
   106      106           4
   106      108           2
   106      110           2
   106      122           2
   107       43           2
   107       75           2
   107       99           3
   107      105           2
   107      107           1
   107      108           1
   107      111           3
   107      123           1
   108       44           1
   108       76           2
   108      100           0
   108      106           0
   108      107           4
   108      108           3
   108      112           2
   108      124           3
   109       45           0
   109       77           3
   109      101           1
   109      105           4
   109      109           4
   109      110           1
   109      111           4
   109      125           0
   110       46           2
   110       78           3
   110      102           1
   110      106           4
   110      109           4
   110      110           0
   110      112           2
   110      126           3
   111       47           3
   111       79           1
   111      103           1
   111      107           4
   111      109           3
   111      111           3
   111      112           4
   111      127           1
   112       48           3
   112       80           4
   112      104           4
   112      108           2
   112      110           2
   112      111           2
   112      112           3
   112      128           1
   113       49           2
   113       81           0
   113       97           4
   113      113           0
   113      114           1
   113      115           3
   113      117           1
   113      121           4
   114       50           4
   114       82           4
   114       98           0
   114      113           3
   114      114           1
   114      116           3
   114      118           0
   114      122           4
   115       51           0
   115       83           1
   115       99           3
   115      113           4
   115      115           4
   115      116           0
   115      119           1
   115      123           0
   116       52           3
   116       84           0
   116      100           4
   116      114           3
   116      115           2
   116      116           3
   116      120           4
   116      124           3
   117       53           0
   117       85           3
   117      101           3
   117      113           3
   117      117           0
   117      118           1
   117      119           0
   117      125           1
   118       54           1
   118       86           3
   118      102           0
   118      114           1
   118      117           0
   118      118           4
   118      120           4
   118      126           3
   119       55           3
   119       87           0
   119      103           0
   119      115           4
   119      117           0
   119      119           4
   119      120           2
   119      127           2
   120       56           1
   120       88           2
   120      104           2
   120      116           1
   120      118           2
   120      119           0
   120      120           2
   120      128           4
   121       57           1
   121       89           3
   121      105           2
   121      113           1
   121      121           2
   121      122           3
   121      123           4
   121      125           4
   122       58           4
   122       90           1
   122      106           3
   122      114           2
   122      121           3
   122      122           2
   122      124           4
   122      126           0
   123       59           4
   123       91           0
   123      107           2
   123      115           4
   123      121           1
   123      123           1
   123      124           1
   123      127           3
   124       60           2
   124       92           2
   124      108           3
   124      116           0
   124      122           2
   124      123           1
   124      124           1
   124      128           4
   125       61           1
   125       93           0
   125      109           1
   125      117           4
   125      121           2
   125      125           3
   125      126           0
   125      127           1
   126       62           4
   126       94           3
   126      110           0
   126      118           1
   126      122           1
   126      125           0
   126      126           0
   126      128           2
   127       63           2
   127       95           4
   127      111           3
   127      119           0
   127      123           2
   127      125           4
   127      127           4
   127      128           1
   128       64           4
   128       96           4
   128      112           2
   128      120           0
   128      124           3
   128      126           2
   128      127           0
   128      128           4
